50
1000
491
473
468
467
449
447
444
422
420
410
408
402
392
385
378
377
358
358
356
342
334
329
327
322
319
314
306
303
296
279
264
263
263
263
252
250
244
235
230
228
217
217
210
206
190
185
182
175
172
168
